100
1000
250
0 0
34 26
34 26
34 26
34 26
34 26
34 26
34 26
34 26
34 26
34 26
34 26
34 26
34 26
34 26
34 26
34 26
34 26
34 26
34 26
34 26
34 26
34 26
34 26
34 26
34 26
-28 20
-28 20
-28 20
-28 20
-28 20
-28 20
-28 20
-28 20
-28 20
-28 20
-28 20
-28 20
-28 20
-28 20
-28 20
-28 20
-28 20
-28 20
-28 20
-28 20
-28 20
-28 20
-28 20
-28 20
-28 20
-19 -37
-19 -37
-19 -37
-19 -37
-19 -37
-19 -37
-19 -37
-19 -37
-19 -37
-19 -37
-19 -37
-19 -37
-19 -37
-19 -37
-19 -37
-19 -37
-19 -37
-19 -37
-19 -37
-19 -37
-19 -37
-19 -37
-19 -37
-19 -37
-19 -37
-16 18
-16 18
-16 18
-16 18
-16 18
-16 18
-16 18
-16 18
-16 18
-16 18
-16 18
-16 18
-16 18
-16 18
-16 18
-16 18
-16 18
-16 18
-16 18
-16 18
-16 18
-16 18
-16 18
-16 18
-16 18
-19 24
-19 24
-19 24
-19 24
-19 24
-19 24
-19 24
-19 24
-19 24
-19 24
-19 24
-19 24
-19 24
-19 24
-19 24
-19 24
-19 24
-19 24
-19 24
-19 24
-19 24
-19 24
-19 24
-19 24
-19 24
32 -19
-32 23
-1 10
-19 4
-11 -34
33 -4
17 -17
-28 15
27 -8
-36 33
12 -33
-13 -40
-13 -25
34 -40
-31 -29
-10 -10
17 7
34 -26
-15 14
19 -4
25 26
4 18
32 26
-16 16
39 18
32 -19
-32 23
-1 10
-19 4
-11 -34
33 -4
17 -17
-28 15
27 -8
-36 33
12 -33
-13 -40
-13 -25
34 -40
-31 -29
-10 -10
17 7
34 -26
-15 14
19 -4
25 26
4 18
32 26
-16 16
39 18
32 -19
-32 23
-1 10
-19 4
-11 -34
33 -4
17 -17
-28 15
27 -8
-36 33
12 -33
-13 -40
-13 -25
34 -40
-31 -29
-10 -10
17 7
34 -26
-15 14
19 -4
25 26
4 18
32 26
-16 16
39 18
32 -19
-32 23
-1 10
-19 4
-11 -34
33 -4
17 -17
-28 15
27 -8
-36 33
12 -33
-13 -40
-13 -25
34 -40
-31 -29
-10 -10
17 7
34 -26
-15 14
19 -4
25 26
4 18
32 26
-16 16
39 18
32 -19
-32 23
-1 10
-19 4
-11 -34
33 -4
17 -17
-28 15
27 -8
-36 33
12 -33
-13 -40
-13 -25
34 -40
-31 -29
-10 -10
17 7
34 -26
-15 14
19 -4
25 26
4 18
32 26
-16 16
39 18
0 0 
56
56
56
53
54
51
52
55
51
53
53
57
60
55
60
53
59
57
56
51
60
56
51
60
56
55
59
54
53
56
54
51
57
56
53
57
54
52
59
56
51
56
60
54
52
53
57
56
60
56
53
54
51
53
57
57
53
51
55
56
56
57
51
60
56
52
56
51
51
53
59
59
56
55
53
56
52
56
53
56
56
56
52
56
54
55
52
55
55
52
56
56
54
52
53
59
55
59
54
55
57
53
52
53
57
56
57
52
59
57
57
59
57
51
52
60
52
53
56
57
56
52
55
60
56
56
56
56
53
54
51
52
55
51
53
53
57
60
55
60
53
59
57
56
51
60
56
51
60
56
55
59
54
53
56
54
51
57
56
53
57
54
52
59
56
51
56
60
54
52
53
57
56
60
56
53
54
51
53
57
57
53
51
55
56
56
57
51
60
56
52
56
51
51
53
59
59
56
55
53
56
52
56
53
56
56
56
52
56
54
55
52
55
55
52
56
56
54
52
53
59
55
59
54
55
57
53
52
53
57
56
57
52
59
57
57
59
57
51
52
60
52
53
56
57
56
52
55
60
56
